%LindaWorkers=ic-node0050
%NProcShared=8
%Mem=11800mb
%chk=201707_ccpVDZ_m06_pentacene.chk
# opt freq cc-pvdz geom=connectivity m06

Title Card Required

0 1
 C                  0.28978453    2.13247726    1.62828471
 C                  1.62188514    1.87843675    1.27488217
 C                  2.30844149    2.77204809    0.44180287
 C                  1.66289668    3.91969906   -0.03787530
 C                  0.33079604    4.17373953    0.31552718
 C                 -0.35576082    3.28012733    1.14860514
 H                 -0.23441684    1.45018457    2.26435827
 H                  2.18709730    4.60199051   -0.67395083
 H                 -0.16209170    5.04999657   -0.05071768
 H                 -1.37284943    3.47409254    1.41843530
 C                  2.26742936    0.73078485    1.75455887
 C                  3.59952921    0.47674309    1.40115433
 C                  4.28608556    1.37035443    0.56807501
 C                  3.64054180    2.51800712    0.08839959
 H                  1.74322950    0.04849467    2.39063640
 H                  4.16474340    3.20030016   -0.54767344
 C                  4.24507293   -0.67090966    1.88082970
 C                  5.57717304   -0.92495101    1.52742587
 C                  6.26372955   -0.03133937    0.69434704
 C                  5.61818638    1.11631424    0.21467306
 H                  3.72087198   -1.35320167    2.51690432
 H                  6.14238723    1.79860605   -0.42140187
 C                  6.22271549   -2.07260585    2.00709793
 C                  7.59582879   -0.28538209    0.34094103
 H                  5.69851371   -2.75489925    2.64317044
 H                  8.12003004    0.39691035   -0.29513287
 C                  8.20035702   -3.47430374    2.13336344
 C                  9.53245466   -3.72834911    1.77995312
 C                 10.21901059   -2.83473845    0.94687284
 C                  9.57346864   -1.68708276    0.46720209
 H                  7.67615682   -4.15659461    2.76943991
 H                 10.02534065   -4.60460903    2.14619346
 H                 11.23609622   -3.02870854    0.67703498
 H                 10.09766896   -1.00479174   -0.16887413
 C                  8.24137090   -1.43303754    0.82061217
 C                  7.55481456   -2.32664890    1.65369142

 1 2 1.5 6 1.5 7 1.0
 2 3 1.5 11 1.5
 3 4 1.5 14 1.5
 4 5 1.5 8 1.0
 5 6 1.5 9 1.0
 6 10 1.0
 7
 8
 9
 10
 11 12 1.5 15 1.0
 12 13 1.5 17 1.5
 13 14 1.5 20 1.5
 14 16 1.0
 15
 16
 17 18 1.5 21 1.0
 18 19 1.5 23 1.5
 19 20 1.5 24 1.5
 20 22 1.0
 21
 22
 23 25 1.0 36 1.5
 24 26 1.0 35 1.5
 25
 26
 27 28 1.5 31 1.0 36 1.5
 28 29 1.5 32 1.0
 29 30 1.5 33 1.0
 30 34 1.0 35 1.5
 31
 32
 33
 34
 35 36 1.5
 36

