%LindaWorkers=in-cn0118
%NProcShared=24
%Mem=59800mb
# opt aug-cc-pvtz geom=connectivity m06

12h pentacene

0 1
 C                  5.01451500    1.40843500    0.06965200
 C                  3.74782800    0.72825200    0.03662000
 C                  3.74781400   -0.72826000   -0.03650200
 C                  5.01449800   -1.40846600   -0.06940300
 C                  6.18394600   -0.71775500   -0.03517200
 C                  6.18395600    0.71770400    0.03554100
 H                  5.00950100    2.50131500    0.12325000
 H                  5.00947400   -2.50134600   -0.12302200
 H                  7.13781700   -1.25071300   -0.06108400
 H                  7.13783400    1.25064300    0.06154600
 C                  2.55137500    1.40725200    0.07138300
 C                  1.29777100    0.73106100    0.03806300
 C                  1.29775400   -0.73103000   -0.03827200
 C                  2.55135900   -1.40724300   -0.07140500
 H                  2.55309500    2.50128400    0.12614000
 H                  2.55307600   -2.50127500   -0.12616500
 C                  0.09624800    1.40957600    0.07456600
 C                 -1.15698900    0.73453700    0.04043200
 C                 -1.15700600   -0.73448400   -0.04088700
 C                  0.09623300   -1.40953200   -0.07494200
 H                  0.09851700    2.50342200    0.12978600
 H                  0.09850800   -2.50338000   -0.13013700
 C                 -2.35404400    1.41539100    0.06274500
 C                 -2.35406300   -1.41533300   -0.06330600
 H                 -2.34946500    2.51033500    0.09115000
 H                 -2.34952200   -2.51026600   -0.09197200
 C                 -4.79632100    1.40806000   -0.15851600
 C                 -6.06342300    0.65171200   -0.38867400
 C                 -6.06331200   -0.65177100    0.38953900
 C                 -4.79624600   -1.40803900    0.15864200
 H                 -4.78939200    2.50043600   -0.22957500
 H                 -6.14344200    0.42821100   -1.47804500
 H                 -6.94782400   -1.25781700    0.13772000
 H                 -4.78940300   -2.50045300    0.22926200
 C                 -3.61575000   -0.74094700    0.00676700
 C                 -3.61576500    0.74098700   -0.00704500
 H                 -6.14319600   -0.42882400    1.47896100
 H                 -6.94784300    1.25780000   -0.13677900

 1 2 1.5 6 2.0 7 1.0
 2 3 1.0 11 2.0
 3 4 1.5 14 2.0
 4 5 2.0 8 1.0
 5 6 1.5 9 1.0
 6 10 1.0
 7
 8
 9
 10
 11 12 1.5 15 1.0
 12 13 1.0 17 2.0
 13 14 1.5 20 2.0
 14 16 1.0
 15
 16
 17 18 1.5 21 1.0
 18 19 1.0 23 2.0
 19 20 1.5 24 2.0
 20 22 1.0
 21
 22
 23 25 1.0 36 1.5
 24 26 1.0 35 1.5
 25
 26
 27 28 1.0 31 1.0 36 2.0
 28 29 1.0 32 1.0 38 1.0
 29 30 1.0 33 1.0 37 1.0
 30 34 1.0 35 2.0
 31
 32
 33
 34
 35 36 1.0
 36
 37
 38

