%mem=80GB
%nprocshared=68
%NProcLinda=2
%chk=mof5_node_ah2.chk
# opt pbepbe geom=connectivity def2svp empiricaldispersion=gd3
integral=superfinegrid

MOF-5 Node Optimization

0 1
 O                 -0.00978400   -0.00603100    0.00947200
 Zn                 1.59668300   -1.03369400    0.51226800
 Zn                -1.59140100   -0.75778100    0.91735900
 Zn                 0.23621100    1.87391000    0.55380700
 Zn                -0.26189800   -0.09632700   -1.94425300
 O                 -2.93668800   -1.36173300   -0.38862700
 O                 -1.26515900    2.48142600    1.67485800
 O                  0.33567500    3.05813100   -1.01864500
 O                 -0.21344100    1.69927000   -2.75231200
 O                  1.14017100   -1.18841700   -2.79349700
 O                 -1.99716400   -0.90285200   -2.40384500
 O                 -1.10065500   -2.31145600    2.02070300
 O                 -2.45227100    0.58647300    2.06816100
 O                  1.88068600    2.10946600    1.61003600
 O                  1.11241200   -2.60027100    1.60391400
 O                  2.55289900   -1.67967400   -1.08560500
 O                  2.84452600    0.05417400    1.57752100
 C                  0.00643000   -2.93109600    2.14406600
 C                  2.20286700   -1.70028600   -2.31274400
 C                 -2.93480200   -1.34610700   -1.66292500
 C                  0.07969400    2.83172000   -2.24828800
 C                  2.80491200    1.28422400    1.90957700
 C                 -2.21847300    1.83083500    2.21566300
 C                  1.19860200   -4.89136100    3.19288600
 C                  1.19781500   -6.04019600    3.99503000
 C                  0.00901300   -6.46648900    4.61215200
 C                 -1.18061000   -5.74137900    4.42558600
 C                 -1.18304900   -4.59225300    3.62385000
 C                  0.00737600   -4.16117100    3.00318400
 H                  2.11572800   -4.53835100    2.69980000
 H                  2.12920300   -6.60843400    4.14135500
 H                 -2.11139000   -6.07566800    4.90899600
 H                 -2.10091600   -4.00874200    3.46292800
 H                  0.00964300   -7.36946200    5.24234700
 C                  5.04408200    3.64816000    3.88592800
 C                  3.97314600    3.15979400    3.12578700
 C                  3.95001200    1.80834600    2.72426700
 C                  5.00848200    0.95195200    3.09087100
 C                  6.07804100    1.44328700    3.85103600
 C                  6.09728700    2.79115400    4.24942300
 H                  5.05963400    4.70364500    4.19817400
 H                  3.13810900    3.81066400    2.82922700
 H                  4.97111800   -0.09821200    2.76741100
 H                  6.90310200    0.77255100    4.13594400
 H                  6.93832700    3.17609800    4.84689800
 C                  3.12821500   -2.38519700   -3.27393900
 C                  4.32230800   -2.97426700   -2.80977500
 C                  5.18617800   -3.61233500   -3.70964300
 C                  4.86300800   -3.66681800   -5.07655800
 C                  3.67348000   -3.08100400   -5.54316900
 C                  2.80796700   -2.44142500   -4.64599600
 H                  4.55347800   -2.91837800   -1.73631900
 H                  6.11804300   -4.07097400   -3.34490300
 H                  5.54258700   -4.16884600   -5.78269700
 H                  3.42101900   -3.12394200   -6.61376600
 H                  1.87220200   -1.97564600   -4.98695900
 C                 -6.35277400   -2.92480200   -2.24360900
 C                 -5.22211400   -2.40804100   -1.59720100
 C                 -4.14624000   -1.89976200   -2.35370200
 C                 -4.21375800   -1.91403100   -3.76202300
 C                 -5.34576900   -2.43143100   -4.40555900
 C                 -6.41614800   -2.93722100   -3.64775800
 H                 -7.19128100   -3.32100300   -1.65054800
 H                 -5.14939900   -2.38751300   -0.50030900
 H                 -3.36409700   -1.51293900   -4.33304500
 H                 -5.39585800   -2.44133700   -5.50519100
 H                 -7.30523500   -3.34358600   -4.15461100
 C                 -0.08216000    4.92169400   -5.42795500
 C                 -0.13291800    3.82623200   -4.55590200
 C                  0.13317900    4.00364400   -3.18259400
 C                  0.45082800    5.28683000   -2.69181600
 C                  0.50164600    6.38012400   -3.56661600
 C                  0.23509300    6.19922800   -4.93486200
 H                 -0.29071000    4.78069600   -6.49958000
 H                 -0.37841300    2.81746400   -4.91781700
 H                  0.65576300    5.40310300   -1.61787300
 H                  0.75038000    7.38077500   -3.18114900
 H                  0.27503300    7.05930000   -5.62128400
 C                 -3.81692800    4.69324900    4.15554900
 C                 -4.89548700    4.03842400    4.77500200
 C                 -5.10217800    2.66462900    4.56105700
 C                 -4.23308500    1.94583700    3.72962800
 C                 -3.14983900    2.59892400    3.10652300
 C                 -2.94596500    3.97712000    3.32378200
 H                 -3.65552200    5.76916500    4.32330500
 H                 -5.57924900    4.60225500    5.42851000
 H                 -5.94702900    2.15226500    5.04633800
 H                 -4.37434700    0.87088700    3.54689800
 H                 -2.09557300    4.46722100    2.82829700
 H                  2.98639500    0.98833700   -1.20363200
 H                  2.65754900    1.68487200   -1.19851000

 1 2 1.0 3 1.0 4 1.0 5 1.0
 2 15 1.0 16 1.0 17 1.0
 3 6 1.0 12 1.0 13 1.0
 4 7 1.0 8 1.0 14 1.0
 5 9 1.0 10 1.0 11 1.0
 6 20 2.0
 7 23 2.0
 8 21 2.0
 9 21 2.0
 10 19 2.0
 11 20 2.0
 12 18 2.0
 13 23 2.0
 14 22 2.0
 15 18 2.0
 16 19 2.0
 17 22 2.0
 18 29 1.0
 19 46 1.0
 20 59 1.0
 21 70 1.0
 22 37 1.0
 23 83 1.0
 24 25 1.5 29 1.5 30 1.0
 25 26 1.5 31 1.0
 26 27 1.5 34 1.0
 27 28 1.5 32 1.0
 28 29 1.5 33 1.0
 29
 30
 31
 32
 33
 34
 35 36 1.5 40 1.5 41 1.0
 36 37 1.5 42 1.0
 37 38 1.5
 38 39 1.5 43 1.0
 39 40 1.5 44 1.0
 40 45 1.0
 41
 42
 43
 44
 45
 46 47 1.5 51 1.5
 47 48 1.5 52 1.0
 48 49 1.5 53 1.0
 49 50 1.5 54 1.0
 50 51 1.5 55 1.0
 51 56 1.0
 52
 53
 54
 55
 56
 57 58 1.5 62 1.5 63 1.0
 58 59 1.5 64 1.0
 59 60 1.5
 60 61 1.5 65 1.0
 61 62 1.5 66 1.0
 62 67 1.0
 63
 64
 65
 66
 67
 68 69 1.5 73 1.5 74 1.0
 69 70 1.5 75 1.0
 70 71 1.5
 71 72 1.5 76 1.0
 72 73 1.5 77 1.0
 73 78 1.0
 74
 75
 76
 77
 78
 79 80 1.5 84 1.5 85 1.0
 80 81 1.5 86 1.0
 81 82 1.5 87 1.0
 82 83 1.5 88 1.0
 83 84 1.5
 84 89 1.0
 85
 86
 87
 88
 89
 90
 91

