%mem=80GB
%nprocshared=68
%NProcLinda=2
%chk=mof5.chk
# opt pbepbe guess=read def2svp empiricaldispersion=gd3 geom=checkpoint
integral=superfinegrid

MOF-5 Optimization

0 1
 Zn                 5.39828100   -7.67740300   -7.67740300
 Zn                -5.39828100    7.67740300    7.67740300
 Zn                -5.39828100   -7.67740300    7.67740300
 Zn                 5.39828100    7.67740300   -7.67740300
 Zn                -5.39828100    7.67740300   -7.67740300
 Zn                 5.39828100   -7.67740300    7.67740300
 Zn                 5.39828100    7.67740300    7.67740300
 Zn                -5.39828100   -7.67740300   -7.67740300
 Zn                 7.67740300   -7.67740300   -5.39828100
 Zn                -7.67740300    7.67740300    5.39828100
 Zn                 7.67740300    7.67740300    5.39828100
 Zn                -7.67740300   -7.67740300   -5.39828100
 Zn                -7.67740300   -7.67740300    5.39828100
 Zn                 7.67740300    7.67740300   -5.39828100
 Zn                -7.67740300    7.67740300   -5.39828100
 Zn                 7.67740300   -7.67740300    5.39828100
 Zn                 7.67740300   -5.39828100   -7.67740300
 Zn                -7.67740300    5.39828100    7.67740300
 Zn                -7.67740300    5.39828100   -7.67740300
 Zn                 7.67740300   -5.39828100    7.67740300
 Zn                 7.67740300    5.39828100    7.67740300
 Zn                -7.67740300   -5.39828100   -7.67740300
 Zn                -7.67740300   -5.39828100    7.67740300
 Zn                 7.67740300    5.39828100   -7.67740300
 Zn                 5.39615000    5.39615000    5.39615000
 Zn                -5.39615000   -5.39615000   -5.39615000
 Zn                -5.39615000    5.39615000   -5.39615000
 Zn                 5.39615000   -5.39615000    5.39615000
 Zn                -5.39615000   -5.39615000    5.39615000
 Zn                 5.39615000    5.39615000   -5.39615000
 Zn                 5.39615000   -5.39615000   -5.39615000
 Zn                -5.39615000    5.39615000    5.39615000
 O                  6.53544800   -6.53544800   -6.53544800
 O                 -6.53544800    6.53544800    6.53544800
 O                 -6.53544800   -6.53544800    6.53544800
 O                  6.53544800    6.53544800   -6.53544800
 O                 -6.53544800    6.53544800   -6.53544800
 O                  6.53544800   -6.53544800    6.53544800
 O                  6.53544800    6.53544800    6.53544800
 O                 -6.53544800   -6.53544800   -6.53544800
 O                  5.72911700   -9.58547600   -7.33427000
 O                 -5.72911700    9.58547600    7.33427000
 O                 -5.72911700   -9.58547600    7.33427000
 O                  5.72911700    9.58547600   -7.33427000
 O                 -5.72911700    9.58547600   -7.33427000
 O                  5.72911700   -9.58547600    7.33427000
 O                  5.72911700    9.58547600    7.33427000
 O                 -5.72911700   -9.58547600   -7.33427000
 O                  9.58547600   -7.33427000   -5.72911700
 O                 -9.58547600    7.33427000    5.72911700
 O                  9.58547600    7.33427000    5.72911700
 O                 -9.58547600   -7.33427000   -5.72911700
 O                 -9.58547600   -7.33427000    5.72911700
 O                  9.58547600    7.33427000   -5.72911700
 O                 -9.58547600    7.33427000   -5.72911700
 O                  9.58547600   -7.33427000    5.72911700
 O                  7.33427000   -5.72911700   -9.58547600
 O                 -7.33427000    5.72911700    9.58547600
 O                 -7.33427000    5.72911700   -9.58547600
 O                  7.33427000   -5.72911700    9.58547600
 O                  7.33427000    5.72911700    9.58547600
 O                 -7.33427000   -5.72911700   -9.58547600
 O                 -7.33427000   -5.72911700    9.58547600
 O                  7.33427000    5.72911700   -9.58547600
 O                  7.33427000    9.58547600   -5.72911700
 O                 -7.33427000   -9.58547600    5.72911700
 O                 -7.33427000    9.58547600    5.72911700
 O                  7.33427000   -9.58547600   -5.72911700
 O                  7.33427000   -9.58547600    5.72911700
 O                 -7.33427000    9.58547600   -5.72911700
 O                 -7.33427000   -9.58547600   -5.72911700
 O                  7.33427000    9.58547600    5.72911700
 O                  5.72911700    7.33427000   -9.58547600
 O                 -5.72911700   -7.33427000    9.58547600
 O                 -5.72911700   -7.33427000   -9.58547600
 O                  5.72911700    7.33427000    9.58547600
 O                 -5.72911700    7.33427000    9.58547600
 O                  5.72911700   -7.33427000   -9.58547600
 O                  5.72911700   -7.33427000    9.58547600
 O                 -5.72911700    7.33427000   -9.58547600
 O                  9.58547600    5.72911700   -7.33427000
 O                 -9.58547600   -5.72911700    7.33427000
 O                  9.58547600   -5.72911700    7.33427000
 O                 -9.58547600    5.72911700   -7.33427000
 O                 -9.58547600   -5.72911700   -7.33427000
 O                  9.58547600    5.72911700    7.33427000
 O                 -9.58547600    5.72911700    7.33427000
 O                  9.58547600   -5.72911700   -7.33427000
 O                  5.73248800    3.48597400    5.73248800
 O                 -5.73248800   -3.48597400   -5.73248800
 O                 -5.73248800    3.48597400   -5.73248800
 O                  5.73248800   -3.48597400    5.73248800
 O                 -5.73248800   -3.48597400    5.73248800
 O                  5.73248800    3.48597400   -5.73248800
 O                  5.73248800   -3.48597400   -5.73248800
 O                 -5.73248800    3.48597400    5.73248800
 O                  7.33788100    7.33788100    3.48695600
 O                 -7.33788100   -7.33788100   -3.48695600
 O                 -7.33788100   -7.33788100    3.48695600
 O                  7.33788100    7.33788100   -3.48695600
 O                  7.33788100   -7.33788100   -3.48695600
 O                 -7.33788100    7.33788100    3.48695600
 O                 -7.33788100    7.33788100   -3.48695600
 O                  7.33788100   -7.33788100    3.48695600
 O                  7.33788100   -3.48695600    7.33788100
 O                 -7.33788100    3.48695600   -7.33788100
 O                 -7.33788100   -3.48695600   -7.33788100
 O                  7.33788100    3.48695600    7.33788100
 O                  7.33788100    3.48695600   -7.33788100
 O                 -7.33788100   -3.48695600    7.33788100
 O                 -7.33788100    3.48695600    7.33788100
 O                  7.33788100   -3.48695600   -7.33788100
 O                  5.73248800   -5.73248800    3.48597400
 O                 -5.73248800    5.73248800   -3.48597400
 O                 -5.73248800    5.73248800    3.48597400
 O                  5.73248800   -5.73248800   -3.48597400
 O                 -5.73248800   -5.73248800   -3.48597400
 O                  5.73248800    5.73248800    3.48597400
 O                  5.73248800    5.73248800   -3.48597400
 O                 -5.73248800   -5.73248800    3.48597400
 O                 -3.48597400    5.73248800   -5.73248800
 O                  3.48597400   -5.73248800    5.73248800
 O                 -3.48597400   -5.73248800    5.73248800
 O                  3.48597400    5.73248800   -5.73248800
 O                  3.48597400    5.73248800    5.73248800
 O                 -3.48597400   -5.73248800   -5.73248800
 O                  3.48597400   -5.73248800   -5.73248800
 O                 -3.48597400    5.73248800    5.73248800
 O                 -3.48695600   -7.33788100   -7.33788100
 O                  3.48695600    7.33788100    7.33788100
 O                 -3.48695600    7.33788100    7.33788100
 O                  3.48695600   -7.33788100   -7.33788100
 O                  3.48695600    7.33788100   -7.33788100
 O                 -3.48695600   -7.33788100    7.33788100
 O                  3.48695600   -7.33788100    7.33788100
 O                 -3.48695600    7.33788100   -7.33788100
 C                  6.52776100  -10.16556000   -6.52776100
 C                 -6.52776100   10.16556000    6.52776100
 C                 -6.52776100  -10.16556000    6.52776100
 C                  6.52776100   10.16556000   -6.52776100
 C                 -6.52776100   10.16556000   -6.52776100
 C                  6.52776100  -10.16556000    6.52776100
 C                  6.52776100   10.16556000    6.52776100
 C                 -6.52776100  -10.16556000   -6.52776100
 C                 10.16556000   -6.52776100   -6.52776100
 C                -10.16556000    6.52776100    6.52776100
 C                 10.16556000    6.52776100    6.52776100
 C                -10.16556000   -6.52776100   -6.52776100
 C                -10.16556000   -6.52776100    6.52776100
 C                 10.16556000    6.52776100   -6.52776100
 C                -10.16556000    6.52776100   -6.52776100
 C                 10.16556000   -6.52776100    6.52776100
 C                  6.52776100   -6.52776100  -10.16556000
 C                 -6.52776100    6.52776100   10.16556000
 C                 -6.52776100    6.52776100  -10.16556000
 C                  6.52776100   -6.52776100   10.16556000
 C                  6.52776100    6.52776100   10.16556000
 C                 -6.52776100   -6.52776100  -10.16556000
 C                 -6.52776100   -6.52776100   10.16556000
 C                  6.52776100    6.52776100  -10.16556000
 C                  6.53551700    2.90866200    6.53551700
 C                 -6.53551700   -2.90866200   -6.53551700
 C                 -6.53551700    2.90866200   -6.53551700
 C                  6.53551700   -2.90866200    6.53551700
 C                 -6.53551700   -2.90866200    6.53551700
 C                  6.53551700    2.90866200   -6.53551700
 C                  6.53551700   -2.90866200   -6.53551700
 C                 -6.53551700    2.90866200    6.53551700
 C                  6.53551700    6.53551700    2.90866200
 C                 -6.53551700   -6.53551700   -2.90866200
 C                 -6.53551700   -6.53551700    2.90866200
 C                  6.53551700    6.53551700   -2.90866200
 C                  6.53551700   -6.53551700   -2.90866200
 C                 -6.53551700    6.53551700    2.90866200
 C                 -6.53551700    6.53551700   -2.90866200
 C                  6.53551700   -6.53551700    2.90866200
 C                 -2.90866200    6.53551700   -6.53551700
 C                  2.90866200   -6.53551700    6.53551700
 C                 -2.90866200   -6.53551700    6.53551700
 C                  2.90866200    6.53551700   -6.53551700
 C                  2.90866200    6.53551700    6.53551700
 C                 -2.90866200   -6.53551700   -6.53551700
 C                  2.90866200   -6.53551700   -6.53551700
 C                 -2.90866200    6.53551700    6.53551700
 C                  5.65001800  -12.37322900   -7.37463100
 C                 -5.65001800   12.37322900    7.37463100
 C                 -5.65001800  -12.37322900    7.37463100
 C                  5.65001800   12.37322900   -7.37463100
 C                 -5.65001800   12.37322900   -7.37463100
 C                  5.65001800  -12.37322900    7.37463100
 C                  5.65001800   12.37322900    7.37463100
 C                 -5.65001800  -12.37322900   -7.37463100
 C                 12.37322900   -7.37463100   -5.65001800
 C                -12.37322900    7.37463100    5.65001800
 C                 12.37322900    7.37463100    5.65001800
 C                -12.37322900   -7.37463100   -5.65001800
 C                -12.37322900   -7.37463100    5.65001800
 C                 12.37322900    7.37463100   -5.65001800
 C                -12.37322900    7.37463100   -5.65001800
 C                 12.37322900   -7.37463100    5.65001800
 C                  7.37463100   -5.65001800  -12.37322900
 C                 -7.37463100    5.65001800   12.37322900
 C                 -7.37463100    5.65001800  -12.37322900
 C                  7.37463100   -5.65001800   12.37322900
 C                  7.37463100    5.65001800   12.37322900
 C                 -7.37463100   -5.65001800  -12.37322900
 C                 -7.37463100   -5.65001800   12.37322900
 C                  7.37463100    5.65001800  -12.37322900
 C                  7.37463100   12.37322900   -5.65001800
 C                 -7.37463100  -12.37322900    5.65001800
 C                 -7.37463100   12.37322900    5.65001800
 C                  7.37463100  -12.37322900   -5.65001800
 C                  7.37463100  -12.37322900    5.65001800
 C                 -7.37463100   12.37322900   -5.65001800
 C                 -7.37463100  -12.37322900   -5.65001800
 C                  7.37463100   12.37322900    5.65001800
 C                  5.65001800    7.37463100  -12.37322900
 C                 -5.65001800   -7.37463100   12.37322900
 C                 -5.65001800   -7.37463100  -12.37322900
 C                  5.65001800    7.37463100   12.37322900
 C                 -5.65001800    7.37463100   12.37322900
 C                  5.65001800   -7.37463100  -12.37322900
 C                  5.65001800   -7.37463100   12.37322900
 C                 -5.65001800    7.37463100  -12.37322900
 C                 12.37322900    5.65001800   -7.37463100
 C                -12.37322900   -5.65001800    7.37463100
 C                 12.37322900   -5.65001800    7.37463100
 C                -12.37322900    5.65001800   -7.37463100
 C                -12.37322900   -5.65001800   -7.37463100
 C                 12.37322900    5.65001800    7.37463100
 C                -12.37322900    5.65001800    7.37463100
 C                 12.37322900   -5.65001800   -7.37463100
 C                  5.67283300    0.69901200    5.67283300
 C                 -5.67283300   -0.69901200   -5.67283300
 C                 -5.67283300    0.69901200   -5.67283300
 C                  5.67283300   -0.69901200    5.67283300
 C                 -5.67283300   -0.69901200    5.67283300
 C                  5.67283300    0.69901200   -5.67283300
 C                  5.67283300   -0.69901200   -5.67283300
 C                 -5.67283300    0.69901200    5.67283300
 C                  7.39819400    7.39819400    0.69899900
 C                 -7.39819400   -7.39819400   -0.69899900
 C                 -7.39819400   -7.39819400    0.69899900
 C                  7.39819400    7.39819400   -0.69899900
 C                  7.39819400   -7.39819400   -0.69899900
 C                 -7.39819400    7.39819400    0.69899900
 C                 -7.39819400    7.39819400   -0.69899900
 C                  7.39819400   -7.39819400    0.69899900
 C                  7.39819400   -0.69899900    7.39819400
 C                 -7.39819400    0.69899900   -7.39819400
 C                 -7.39819400   -0.69899900   -7.39819400
 C                  7.39819400    0.69899900    7.39819400
 C                  7.39819400    0.69899900   -7.39819400
 C                 -7.39819400   -0.69899900    7.39819400
 C                 -7.39819400    0.69899900    7.39819400
 C                  7.39819400   -0.69899900   -7.39819400
 C                  5.67283300   -5.67283300    0.69901200
 C                 -5.67283300    5.67283300   -0.69901200
 C                 -5.67283300    5.67283300    0.69901200
 C                  5.67283300   -5.67283300   -0.69901200
 C                 -5.67283300   -5.67283300   -0.69901200
 C                  5.67283300    5.67283300    0.69901200
 C                  5.67283300    5.67283300   -0.69901200
 C                 -5.67283300   -5.67283300    0.69901200
 C                 -0.69901200    5.67283300   -5.67283300
 C                  0.69901200   -5.67283300    5.67283300
 C                 -0.69901200   -5.67283300    5.67283300
 C                  0.69901200    5.67283300   -5.67283300
 C                  0.69901200    5.67283300    5.67283300
 C                 -0.69901200   -5.67283300   -5.67283300
 C                  0.69901200   -5.67283300   -5.67283300
 C                 -0.69901200    5.67283300    5.67283300
 C                 -0.69899900   -7.39819400   -7.39819400
 C                  0.69899900    7.39819400    7.39819400
 C                 -0.69899900    7.39819400    7.39819400
 C                  0.69899900   -7.39819400   -7.39819400
 C                  0.69899900    7.39819400   -7.39819400
 C                 -0.69899900   -7.39819400    7.39819400
 C                  0.69899900   -7.39819400    7.39819400
 C                 -0.69899900    7.39819400   -7.39819400
 C                  6.51755600  -11.66533000   -6.51755600
 C                 -6.51755600   11.66533000    6.51755600
 C                 -6.51755600  -11.66533000    6.51755600
 C                  6.51755600   11.66533000   -6.51755600
 C                 -6.51755600   11.66533000   -6.51755600
 C                  6.51755600  -11.66533000    6.51755600
 C                  6.51755600   11.66533000    6.51755600
 C                 -6.51755600  -11.66533000   -6.51755600
 C                 11.66533000   -6.51755600   -6.51755600
 C                -11.66533000    6.51755600    6.51755600
 C                 11.66533000    6.51755600    6.51755600
 C                -11.66533000   -6.51755600   -6.51755600
 C                -11.66533000   -6.51755600    6.51755600
 C                 11.66533000    6.51755600   -6.51755600
 C                -11.66533000    6.51755600   -6.51755600
 C                 11.66533000   -6.51755600    6.51755600
 C                  6.51755600   -6.51755600  -11.66533000
 C                 -6.51755600    6.51755600   11.66533000
 C                 -6.51755600    6.51755600  -11.66533000
 C                  6.51755600   -6.51755600   11.66533000
 C                  6.51755600    6.51755600   11.66533000
 C                 -6.51755600   -6.51755600  -11.66533000
 C                 -6.51755600   -6.51755600   11.66533000
 C                  6.51755600    6.51755600  -11.66533000
 C                  6.53550500    1.40672700    6.53550500
 C                 -6.53550500   -1.40672700   -6.53550500
 C                 -6.53550500    1.40672700   -6.53550500
 C                  6.53550500   -1.40672700    6.53550500
 C                 -6.53550500   -1.40672700    6.53550500
 C                  6.53550500    1.40672700   -6.53550500
 C                  6.53550500   -1.40672700   -6.53550500
 C                 -6.53550500    1.40672700    6.53550500
 C                  6.53550500    6.53550500    1.40672700
 C                 -6.53550500   -6.53550500   -1.40672700
 C                 -6.53550500   -6.53550500    1.40672700
 C                  6.53550500    6.53550500   -1.40672700
 C                  6.53550500   -6.53550500   -1.40672700
 C                 -6.53550500    6.53550500    1.40672700
 C                 -6.53550500    6.53550500   -1.40672700
 C                  6.53550500   -6.53550500    1.40672700
 C                 -1.40672700    6.53550500   -6.53550500
 C                  1.40672700   -6.53550500    6.53550500
 C                 -1.40672700   -6.53550500    6.53550500
 C                  1.40672700    6.53550500   -6.53550500
 C                  1.40672700    6.53550500    6.53550500
 C                 -1.40672700   -6.53550500   -6.53550500
 C                  1.40672700   -6.53550500   -6.53550500
 C                 -1.40672700    6.53550500    6.53550500
 H                  4.98947800  -11.80231200   -8.04290000
 H                 -4.98947800   11.80231200    8.04290000
 H                 -4.98947800  -11.80231200    8.04290000
 H                  4.98947800   11.80231200   -8.04290000
 H                 -4.98947800   11.80231200   -8.04290000
 H                  4.98947800  -11.80231200    8.04290000
 H                  4.98947800   11.80231200    8.04290000
 H                 -4.98947800  -11.80231200   -8.04290000
 H                 11.80231200   -8.04290000   -4.98947800
 H                -11.80231200    8.04290000    4.98947800
 H                 11.80231200    8.04290000    4.98947800
 H                -11.80231200   -8.04290000   -4.98947800
 H                -11.80231200   -8.04290000    4.98947800
 H                 11.80231200    8.04290000   -4.98947800
 H                -11.80231200    8.04290000   -4.98947800
 H                 11.80231200   -8.04290000    4.98947800
 H                  8.04290000   -4.98947800  -11.80231200
 H                 -8.04290000    4.98947800   11.80231200
 H                 -8.04290000    4.98947800  -11.80231200
 H                  8.04290000   -4.98947800   11.80231200
 H                  8.04290000    4.98947800   11.80231200
 H                 -8.04290000   -4.98947800  -11.80231200
 H                 -8.04290000   -4.98947800   11.80231200
 H                  8.04290000    4.98947800  -11.80231200
 H                  8.04290000   11.80231200   -4.98947800
 H                 -8.04290000  -11.80231200    4.98947800
 H                 -8.04290000   11.80231200    4.98947800
 H                  8.04290000  -11.80231200   -4.98947800
 H                  8.04290000  -11.80231200    4.98947800
 H                 -8.04290000   11.80231200   -4.98947800
 H                 -8.04290000  -11.80231200   -4.98947800
 H                  8.04290000   11.80231200    4.98947800
 H                  4.98947800    8.04290000  -11.80231200
 H                 -4.98947800   -8.04290000   11.80231200
 H                 -4.98947800   -8.04290000  -11.80231200
 H                  4.98947800    8.04290000   11.80231200
 H                 -4.98947800    8.04290000   11.80231200
 H                  4.98947800   -8.04290000  -11.80231200
 H                  4.98947800   -8.04290000   11.80231200
 H                 -4.98947800    8.04290000  -11.80231200
 H                 11.80231200    4.98947800   -8.04290000
 H                -11.80231200   -4.98947800    8.04290000
 H                 11.80231200   -4.98947800    8.04290000
 H                -11.80231200    4.98947800   -8.04290000
 H                -11.80231200   -4.98947800   -8.04290000
 H                 11.80231200    4.98947800    8.04290000
 H                -11.80231200    4.98947800    8.04290000
 H                 11.80231200   -4.98947800   -8.04290000
 H                  5.00810500    1.26878300    5.00810500
 H                 -5.00810500   -1.26878300   -5.00810500
 H                 -5.00810500    1.26878300   -5.00810500
 H                  5.00810500   -1.26878300    5.00810500
 H                 -5.00810500   -1.26878300    5.00810500
 H                  5.00810500    1.26878300   -5.00810500
 H                  5.00810500   -1.26878300   -5.00810500
 H                 -5.00810500    1.26878300    5.00810500
 H                  8.06278100    8.06278100    1.26913900
 H                 -8.06278100   -8.06278100   -1.26913900
 H                 -8.06278100   -8.06278100    1.26913900
 H                  8.06278100    8.06278100   -1.26913900
 H                  8.06278100   -8.06278100   -1.26913900
 H                 -8.06278100    8.06278100    1.26913900
 H                 -8.06278100    8.06278100   -1.26913900
 H                  8.06278100   -8.06278100    1.26913900
 H                  8.06278100   -1.26913900    8.06278100
 H                 -8.06278100    1.26913900   -8.06278100
 H                 -8.06278100   -1.26913900   -8.06278100
 H                  8.06278100    1.26913900    8.06278100
 H                  8.06278100    1.26913900   -8.06278100
 H                 -8.06278100   -1.26913900    8.06278100
 H                 -8.06278100    1.26913900    8.06278100
 H                  8.06278100   -1.26913900   -8.06278100
 H                  5.00810500   -5.00810500    1.26878300
 H                 -5.00810500    5.00810500   -1.26878300
 H                 -5.00810500    5.00810500    1.26878300
 H                  5.00810500   -5.00810500   -1.26878300
 H                 -5.00810500   -5.00810500   -1.26878300
 H                  5.00810500    5.00810500    1.26878300
 H                  5.00810500    5.00810500   -1.26878300
 H                 -5.00810500   -5.00810500    1.26878300
 H                 -1.26878300    5.00810500   -5.00810500
 H                  1.26878300   -5.00810500    5.00810500
 H                 -1.26878300   -5.00810500    5.00810500
 H                  1.26878300    5.00810500   -5.00810500
 H                  1.26878300    5.00810500    5.00810500
 H                 -1.26878300   -5.00810500   -5.00810500
 H                  1.26878300   -5.00810500   -5.00810500
 H                 -1.26878300    5.00810500    5.00810500
 H                 -1.26913900   -8.06278100   -8.06278100
 H                  1.26913900    8.06278100    8.06278100
 H                 -1.26913900    8.06278100    8.06278100
 H                  1.26913900   -8.06278100   -8.06278100
 H                  1.26913900    8.06278100   -8.06278100
 H                 -1.26913900   -8.06278100    8.06278100
 H                  1.26913900   -8.06278100    8.06278100
 H                 -1.26913900    8.06278100   -8.06278100
 C                  5.64092900  -13.77426100   -7.36313900
 C                 -5.64092900   13.77426100    7.36313900
 C                 -5.64092900  -13.77426100    7.36313900
 C                  5.64092900   13.77426100   -7.36313900
 C                 -5.64092900   13.77426100   -7.36313900
 C                  5.64092900  -13.77426100    7.36313900
 C                  5.64092900   13.77426100    7.36313900
 C                 -5.64092900  -13.77426100   -7.36313900
 C                 13.77426100   -7.36313900   -5.64092900
 C                -13.77426100    7.36313900    5.64092900
 C                 13.77426100    7.36313900    5.64092900
 C                -13.77426100   -7.36313900   -5.64092900
 C                -13.77426100   -7.36313900    5.64092900
 C                 13.77426100    7.36313900   -5.64092900
 C                -13.77426100    7.36313900   -5.64092900
 C                 13.77426100   -7.36313900    5.64092900
 C                  7.36313900   -5.64092900  -13.77426100
 C                 -7.36313900    5.64092900   13.77426100
 C                 -7.36313900    5.64092900  -13.77426100
 C                  7.36313900   -5.64092900   13.77426100
 C                  7.36313900    5.64092900   13.77426100
 C                 -7.36313900   -5.64092900  -13.77426100
 C                 -7.36313900   -5.64092900   13.77426100
 C                  7.36313900    5.64092900  -13.77426100
 C                  7.36313900   13.77426100   -5.64092900
 C                 -7.36313900  -13.77426100    5.64092900
 C                 -7.36313900   13.77426100    5.64092900
 C                  7.36313900  -13.77426100   -5.64092900
 C                  7.36313900  -13.77426100    5.64092900
 C                 -7.36313900   13.77426100   -5.64092900
 C                 -7.36313900  -13.77426100   -5.64092900
 C                  7.36313900   13.77426100    5.64092900
 C                  5.64092900    7.36313900  -13.77426100
 C                 -5.64092900   -7.36313900   13.77426100
 C                 -5.64092900   -7.36313900  -13.77426100
 C                  5.64092900    7.36313900   13.77426100
 C                 -5.64092900    7.36313900   13.77426100
 C                  5.64092900   -7.36313900  -13.77426100
 C                  5.64092900   -7.36313900   13.77426100
 C                 -5.64092900    7.36313900  -13.77426100
 C                 13.77426100    5.64092900   -7.36313900
 C                -13.77426100   -5.64092900    7.36313900
 C                 13.77426100   -5.64092900    7.36313900
 C                -13.77426100    5.64092900   -7.36313900
 C                -13.77426100   -5.64092900   -7.36313900
 C                 13.77426100    5.64092900    7.36313900
 C                -13.77426100    5.64092900    7.36313900
 C                 13.77426100   -5.64092900   -7.36313900
 C                  6.49688100  -14.47621600   -6.49688100
 H                  4.96244600  -14.32447500   -8.03296400
 H                 -4.96244600   14.32447500    8.03296400
 C                 -6.49688100   14.47621600    6.49688100
 H                 -4.96244600  -14.32447500    8.03296400
 C                 -6.49688100  -14.47621600    6.49688100
 C                  6.49688100   14.47621600   -6.49688100
 H                  4.96244600   14.32447500   -8.03296400
 H                 -4.96244600   14.32447500   -8.03296400
 C                 -6.49688100   14.47621600   -6.49688100
 C                  6.49688100  -14.47621600    6.49688100
 H                  4.96244600  -14.32447500    8.03296400
 C                  6.49688100   14.47621600    6.49688100
 H                  4.96244600   14.32447500    8.03296400
 H                 -4.96244600  -14.32447500   -8.03296400
 C                 -6.49688100  -14.47621600   -6.49688100
 C                 14.47621600   -6.49688100   -6.49688100
 H                 14.32447500   -8.03296400   -4.96244600
 H                -14.32447500    8.03296400    4.96244600
 C                -14.47621600    6.49688100    6.49688100
 H                 14.32447500    8.03296400    4.96244600
 C                 14.47621600    6.49688100    6.49688100
 C                -14.47621600   -6.49688100   -6.49688100
 H                -14.32447500   -8.03296400   -4.96244600
 H                -14.32447500   -8.03296400    4.96244600
 C                -14.47621600   -6.49688100    6.49688100
 C                 14.47621600    6.49688100   -6.49688100
 H                 14.32447500    8.03296400   -4.96244600
 C                -14.47621600    6.49688100   -6.49688100
 H                -14.32447500    8.03296400   -4.96244600
 H                 14.32447500   -8.03296400    4.96244600
 C                 14.47621600   -6.49688100    6.49688100
 C                  6.49688100   -6.49688100  -14.47621600