# opt pbepbe geom=connectivity def2svp empiricaldispersion=gd3
integral=superfinegrid

MOF-5 Node Optimization

0 1
 O                  0.00006700   -0.00007800   -0.00001500
 Zn                 0.14568900    0.55291500    1.88973600
 Zn                -1.87714700   -0.45425500   -0.40992400
 Zn                 0.58865100    1.48037900   -1.16619400
 Zn                 1.14285700   -1.57926900   -0.31368300
 O                 -2.04539600   -2.32374400   -1.00195200
 O                 -0.85600400    2.05518100   -2.37294200
 O                  2.11966100    0.94448900   -2.28086900
 O                  2.51074400   -1.20938800   -1.67962100
 O                  2.07480200   -2.12315500    1.33231300
 O                  0.08094300   -3.11597300   -0.93388700
 O                 -3.02809400   -0.22279700    1.16977800
 O                 -2.59170000    0.69188900   -1.84154300
 O                  1.14027500    3.04552600   -0.10795000
 O                 -1.60384200    0.48665600    2.78896600
 O                  1.37236100   -0.62216900    2.88383400
 O                  0.82643200    2.39318100    2.04369500
 C                 -2.75616900    0.15699200    2.35559400
 C                  2.05111900   -1.63359100    2.50880100
 C                 -1.16893200   -3.23678400   -1.15197600
 C                  2.75517200   -0.15765800   -2.35672400
 C                  1.17047200    3.23615500    1.15185000
 C                 -2.05161200    1.63477300   -2.50758900
 C                 -3.66854800    0.63356800    4.65867700
 C                 -4.73386100    0.69359900    5.56684500
 C                 -6.03097800    0.34331400    5.15382400
 C                 -6.26157100   -0.06763700    3.82953300
 C                 -5.19832700   -0.12868200    2.91902500
 C                 -3.89566500    0.22184600    3.32935800
 H                 -2.64538800    0.90252500    4.95814100
 H                 -4.55378700    1.01537200    6.60406300
 H                 -7.27758000   -0.34185900    3.50655600
 H                 -5.35378000   -0.44698700    1.87816600
 H                 -6.86736100    0.39088600    5.86846000
 C                  2.50412300    6.80439600    1.14343200
 C                  2.05196500    5.55556100    0.69710300
 C                  1.65482800    4.57386500    1.62808900
 C                  1.71487200    4.85471100    3.00856000
 C                  2.16747400    6.10449200    3.45177800
 C                  2.56246500    7.08042100    2.52046200
 H                  2.81357100    7.56901600    0.41447100
 H                  1.99742400    5.31625000   -0.37463800
 H                  1.40062200    4.07543300    3.71767700
 H                  2.21336300    6.32113500    4.53008500
 H                  2.91797700    8.06222400    2.87000000
 C                  2.89899500   -2.30897000    3.54602600
 C                  2.92214200   -1.82121500    4.86880400
 C                  3.71454400   -2.45303800    5.83635000
 C                  4.48779700   -3.57446400    5.48952900
 C                  4.46749300   -4.06381200    4.17198200
 C                  3.67612700   -3.43414600    3.20218600
 H                  2.30888600   -0.94274100    5.11593800
 H                  3.73079600   -2.07018100    6.86831000
 H                  5.11011700   -4.07015400    6.25078600
 H                  5.07323900   -4.94207900    3.90086400
 H                  3.64378100   -3.79834800    2.16527600
 C                 -3.47223000   -6.03095700   -2.33454100
 C                 -3.02243600   -4.78076900   -1.88961000
 C                 -1.65221000   -4.57482700   -1.62837200
 C                 -0.73809800   -5.63174200   -1.81682000
 C                 -1.19096500   -6.88077900   -2.26186000
 C                 -2.55774100   -7.08199600   -2.52117000
 H                 -4.54251300   -6.18903500   -2.53774400
 H                 -3.71843300   -3.94354600   -1.73625200
 H                  0.32587100   -5.45014500   -1.60737800
 H                 -0.47518200   -7.70420700   -2.40816800
 H                 -2.91243000   -8.06403400   -2.87088400
 C                  5.70501800   -1.46983400   -4.37852400
 C                  4.64165400   -1.41052500   -3.46803700
 C                  3.89403700   -0.22287000   -3.33119900
 C                  4.22132600    0.90326600   -4.11406500
 C                  5.28524400    0.84083900   -5.02369300
 C                  6.02808100   -0.34499600   -5.15709600
 H                  6.28706900   -2.39828000   -4.48336100
 H                  4.36998300   -2.27703700   -2.84817800
 H                  3.62581000    1.81940900   -3.99193300
 H                  5.53863300    1.72147700   -5.63365700
 H                  6.86397400   -0.39282700   -5.87228700
 C                 -3.16176500    3.99313100   -5.28549600
 C                 -4.48978600    3.57817600   -5.48544000
 C                 -5.02375800    2.53029900   -4.71561500
 C                 -4.23265000    1.89774300   -3.74749200
 C                 -2.90001200    2.31100200   -3.54383400
 C                 -2.36813700    3.36252900   -4.31815900
 H                 -2.74405200    4.81382100   -5.88862900
 H                 -5.11249500    4.07453200   -6.24594500
 H                 -6.06384300    2.20569100   -4.87258600
 H                 -4.62789200    1.07601300   -3.13315100
 H                 -1.32687000    3.66933100   -4.14349100

 1 2 1.0 3 1.0 4 1.0 5 1.0
 2 15 1.0 16 1.0 17 1.0
 3 6 1.0 12 1.0 13 1.0
 4 7 1.0 8 1.0 14 1.0
 5 9 1.0 10 1.0 11 1.0
 6 20 2.0
 7 23 2.0
 8 21 2.0
 9 21 2.0
 10 19 2.0
 11 20 2.0
 12 18 2.0
 13 23 2.0
 14 22 2.0
 15 18 2.0
 16 19 2.0
 17 22 2.0
 18 29 1.0
 19 46 1.0
 20 59 1.0
 21 70 1.0
 22 37 1.0
 23 83 1.0
 24 25 1.5 29 1.5 30 1.0
 25 26 1.5 31 1.0
 26 27 1.5 34 1.0
 27 28 1.5 32 1.0
 28 29 1.5 33 1.0
 29
 30
 31
 32
 33
 34
 35 36 1.5 40 1.5 41 1.0
 36 37 1.5 42 1.0
 37 38 1.5
 38 39 1.5 43 1.0
 39 40 1.5 44 1.0
 40 45 1.0
 41
 42
 43
 44
 45
 46 47 1.5 51 1.5
 47 48 1.5 52 1.0
 48 49 1.5 53 1.0
 49 50 1.5 54 1.0
 50 51 1.5 55 1.0
 51 56 1.0
 52
 53
 54
 55
 56
 57 58 1.5 62 1.5 63 1.0
 58 59 1.5 64 1.0
 59 60 1.5
 60 61 1.5 65 1.0
 61 62 1.5 66 1.0
 62 67 1.0
 63
 64
 65
 66
 67
 68 69 1.5 73 1.5 74 1.0
 69 70 1.5 75 1.0
 70 71 1.5
 71 72 1.5 76 1.0
 72 73 1.5 77 1.0
 73 78 1.0
 74
 75
 76
 77
 78
 79 80 1.5 84 1.5 85 1.0
 80 81 1.5 86 1.0
 81 82 1.5 87 1.0
 82 83 1.5 88 1.0
 83 84 1.5
 84 89 1.0
 85
 86
 87
 88
 89

