%LindaWorkers=in-cn0572
%NProcShared=24
%Mem=59800mb
%chk=20171201_def2svp_m06_150c12h24.chk
# hf/sto-3g geom=connectivity

Title Card Required

0 1
 C                 -6.85444300   -0.13487700   -0.16841400
 H                 -7.04021200   -0.81832800    0.67765300
 H                 -6.88444300   -0.74368300   -1.08812600
 H                 -7.69705200    0.57265200   -0.21284800
 C                 -5.52036300    0.56989000   -0.02104000
 H                 -5.36871300    1.27332400   -0.86198800
 H                 -5.52345100    1.19984300    0.88909700
 C                 -4.34402300   -0.38859700    0.04249700
 H                 -4.33509900   -1.02083500   -0.86810100
 H                 -4.48926000   -1.09459100    0.88490400
 C                 -3.00139300    0.30276500    0.18946400
 H                 -3.00708700    0.93031100    1.10287300
 H                 -2.85036900    1.00932800   -0.64970200
 C                 -1.82467700   -0.66362400    0.24692800
 H                 -1.80065600   -1.27768700   -0.67320500
 H                 -1.99464100   -1.37371900    1.08119900
 C                 -0.51188500    0.02300500    0.42808800
 H                 -0.40545700    0.63496200    1.33863500
 C                  0.51188500   -0.02300500   -0.42808800
 H                  1.17216477    0.85647358   -0.50199457
 C                  0.83176686   -1.16364933   -1.33600170
 H                  0.13300306   -1.99997836   -1.14474794
 H                  1.84319143   -1.55449388   -1.10493530
 C                  0.78740415   -0.78375375   -2.81098702
 H                  1.47199862    0.06870019   -2.99213636
 H                 -0.22326638   -0.40463997   -3.05808399
 C                  1.14740554   -1.92782493   -3.74036106
 H                  2.15961502   -2.30319809   -3.48797669
 H                  0.46596539   -2.78217558   -3.55403462
 C                  1.09942492   -1.55669372   -5.21225424
 H                  0.08779364   -1.18066090   -5.45763582
 H                  1.77970764   -0.70231609   -5.39240396
 C                  1.46070983   -2.70932120   -6.12828275
 H                  1.42166009   -2.42500047   -7.19139065
 H                  2.47957530   -3.07895975   -5.92158515
 H                  0.77337731   -3.56094546   -5.98783707

 1 2 1.0 3 1.0 4 1.0 5 1.0
 2
 3
 4
 5 6 1.0 7 1.0 8 1.0
 6
 7
 8 9 1.0 10 1.0 11 1.0
 9
 10
 11 12 1.0 13 1.0 14 1.0
 12
 13
 14 15 1.0 16 1.0 17 1.0
 15
 16
 17 18 1.0 19 2.0
 18
 19 20 1.0 21 1.0
 20
 21 22 1.0 23 1.0 24 1.0
 22
 23
 24 25 1.0 26 1.0 27 1.0
 25
 26
 27 28 1.0 29 1.0 30 1.0
 28
 29
 30 31 1.0 32 1.0 33 1.0
 31
 32
 33 34 1.0 35 1.0 36 1.0
 34
 35
 36

