%LindaWorkers=in-cn0541
%NProcShared=24
%Mem=59800mb
%chk=20171201_def2svp_m06_105c12h24.chk
# hf/sto-3g geom=connectivity

Title Card Required

0 1
 C                 -6.85444300   -0.13487700   -0.16841400
 H                 -7.04021200   -0.81832800    0.67765300
 H                 -6.88444300   -0.74368300   -1.08812600
 H                 -7.69705200    0.57265200   -0.21284800
 C                 -5.52036300    0.56989000   -0.02104000
 H                 -5.36871300    1.27332400   -0.86198800
 H                 -5.52345100    1.19984300    0.88909700
 C                 -4.34402300   -0.38859700    0.04249700
 H                 -4.33509900   -1.02083500   -0.86810100
 H                 -4.48926000   -1.09459100    0.88490400
 C                 -3.00139300    0.30276500    0.18946400
 H                 -3.00708700    0.93031100    1.10287300
 H                 -2.85036900    1.00932800   -0.64970200
 C                 -1.82467700   -0.66362400    0.24692800
 H                 -1.80065600   -1.27768700   -0.67320500
 H                 -1.99464100   -1.37371900    1.08119900
 C                 -0.51188500    0.02300500    0.42808800
 H                 -0.40545700    0.63496200    1.33863500
 C                  0.51188500   -0.02300500   -0.42808800
 H                  0.69575561    0.85287754   -1.07146621
 C                  1.42767606   -1.18546804   -0.62227247
 H                  1.17603711   -1.98360024    0.10157690
 H                  2.46955483   -0.88450449   -0.39196758
 C                  1.38991526   -1.74561236   -2.03884680
 H                  1.62045214   -0.93684368   -2.76058661
 H                  0.35602576   -2.06333278   -2.27626066
 C                  2.34512840   -2.90439416   -2.25570759
 H                  3.37801385   -2.58044111   -2.01618103
 H                  2.11762033   -3.71025905   -1.52919873
 C                  2.30785791   -3.47065483   -3.66441969
 H                  1.27433911   -3.79004201   -3.89860207
 H                  2.53359711   -2.66189826   -4.38563690
 C                  3.26654868   -4.62759688   -3.86586999
 H                  3.22826649   -5.02704448   -4.89131511
 H                  4.30810653   -4.32168327   -3.66834152
 H                  3.03809007   -5.45932760   -3.17779620

 1 2 1.0 3 1.0 4 1.0 5 1.0
 2
 3
 4
 5 6 1.0 7 1.0 8 1.0
 6
 7
 8 9 1.0 10 1.0 11 1.0
 9
 10
 11 12 1.0 13 1.0 14 1.0
 12
 13
 14 15 1.0 16 1.0 17 1.0
 15
 16
 17 18 1.0 19 2.0
 18
 19 20 1.0 21 1.0
 20
 21 22 1.0 23 1.0 24 1.0
 22
 23
 24 25 1.0 26 1.0 27 1.0
 25
 26
 27 28 1.0 29 1.0 30 1.0
 28
 29
 30 31 1.0 32 1.0 33 1.0
 31
 32
 33 34 1.0 35 1.0 36 1.0
 34
 35
 36

