%chk=mof5.chk
# opt Integral(superfinegrid) pbepbe/def2svp geom=connectivity Guess=Read EmpiricalDispersion=GD3

MOF-5 Optimization

0 1
 Zn                 7.53400000    5.30100000    5.30100000
 Zn                18.13500000   20.36800000   20.36800000
 Zn                18.13500000   20.36800000    5.30100000
 Zn                 7.53400000    5.30100000   20.36800000
 Zn                18.13500000    5.30100000   20.36800000
 Zn                 7.53400000   20.36800000    5.30100000
 Zn                 7.53400000   20.36800000   20.36800000
 Zn                18.13500000    5.30100000    5.30100000
 Zn                 5.30100000    7.53400000    5.30100000
 Zn                20.36800000   18.13500000   20.36800000
 Zn                 5.30100000   18.13500000   20.36800000
 Zn                20.36800000    7.53400000    5.30100000
 Zn                20.36800000   18.13500000    5.30100000
 Zn                 5.30100000    7.53400000   20.36800000
 Zn                20.36800000    7.53400000   20.36800000
 Zn                 5.30100000   18.13500000    5.30100000
 Zn                 5.30100000    5.30100000    7.53400000
 Zn                20.36800000   20.36800000   18.13500000
 Zn                20.36800000    5.30100000   18.13500000
 Zn                 5.30100000   20.36800000    7.53400000
 Zn                 5.30100000   20.36800000   18.13500000
 Zn                20.36800000    5.30100000    7.53400000
 Zn                20.36800000   20.36800000    7.53400000
 Zn                 5.30100000    5.30100000   18.13500000
 Zn                 7.53400000   18.13500000   18.13500000
 Zn                18.13500000    7.53400000    7.53400000
 Zn                18.13500000    7.53400000   18.13500000
 Zn                 7.53400000   18.13500000    7.53400000
 Zn                18.13500000   18.13500000    7.53400000
 Zn                 7.53400000    7.53400000   18.13500000
 Zn                 7.53400000    7.53400000    7.53400000
 Zn                18.13500000   18.13500000   18.13500000
 O                  6.41700000    6.41700000    6.41700000
 O                 19.25200000   19.25200000   19.25200000
 O                 19.25200000   19.25200000    6.41700000
 O                  6.41700000    6.41700000   19.25200000
 O                 19.25200000    6.41700000   19.25200000
 O                  6.41700000   19.25200000    6.41700000
 O                  6.41700000   19.25200000   19.25200000
 O                 19.25200000    6.41700000    6.41700000
 O                  7.23400000    5.60100000    3.43700000
 O                 18.43500000   20.06800000   22.23200000
 O                 18.43500000   20.06800000    3.43700000
 O                  7.23400000    5.60100000   22.23200000
 O                 18.43500000    5.60100000   22.23200000
 O                  7.23400000   20.06800000    3.43700000
 O                  7.23400000   20.06800000   22.23200000
 O                 18.43500000    5.60100000    3.43700000
 O                  3.43700000    7.23400000    5.60100000
 O                 22.23200000   18.43500000   20.06800000
 O                  3.43700000   18.43500000   20.06800000
 O                 22.23200000    7.23400000    5.60100000
 O                 22.23200000   18.43500000    5.60100000
 O                  3.43700000    7.23400000   20.06800000
 O                 22.23200000    7.23400000   20.06800000
 O                  3.43700000   18.43500000    5.60100000
 O                  5.60100000    3.43700000    7.23400000
 O                 20.06800000   22.23200000   18.43500000
 O                 20.06800000    3.43700000   18.43500000
 O                  5.60100000   22.23200000    7.23400000
 O                  5.60100000   22.23200000   18.43500000
 O                 20.06800000    3.43700000    7.23400000
 O                 20.06800000   22.23200000    7.23400000
 O                  5.60100000    3.43700000   18.43500000
 O                  5.60100000    7.23400000   22.23200000
 O                 20.06800000   18.43500000    3.43700000
 O                 20.06800000   18.43500000   22.23200000
 O                  5.60100000    7.23400000    3.43700000
 O                  5.60100000   18.43500000    3.43700000
 O                 20.06800000    7.23400000   22.23200000
 O                 20.06800000    7.23400000    3.43700000
 O                  5.60100000   18.43500000   22.23200000
 O                  7.23400000    3.43700000   20.06800000
 O                 18.43500000   22.23200000    5.60100000
 O                 18.43500000    3.43700000    5.60100000
 O                  7.23400000   22.23200000   20.06800000
 O                 18.43500000   22.23200000   20.06800000
 O                  7.23400000    3.43700000    5.60100000
 O                  7.23400000   22.23200000    5.60100000
 O                 18.43500000    3.43700000   20.06800000
 O                  3.43700000    5.60100000   18.43500000
 O                 22.23200000   20.06800000    7.23400000
 O                  3.43700000   20.06800000    7.23400000
 O                 22.23200000    5.60100000   18.43500000
 O                 22.23200000    5.60100000    7.23400000
 O                  3.43700000   20.06800000   18.43500000
 O                 22.23200000   20.06800000   18.43500000
 O                  3.43700000    5.60100000    7.23400000
 O                  7.23400000   18.43500000   16.27200000
 O                 18.43500000    7.23400000    9.39700000
 O                 18.43500000    7.23400000   16.27200000
 O                  7.23400000   18.43500000    9.39700000
 O                 18.43500000   18.43500000    9.39700000
 O                  7.23400000    7.23400000   16.27200000
 O                  7.23400000    7.23400000    9.39700000
 O                 18.43500000   18.43500000   16.27200000
 O                  5.60100000   16.27200000   20.06800000
 O                 20.06800000    9.39700000    5.60100000
 O                 20.06800000   16.27200000    5.60100000
 O                  5.60100000    9.39700000   20.06800000
 O                  5.60100000    9.39700000    5.60100000
 O                 20.06800000   16.27200000   20.06800000
 O                 20.06800000    9.39700000   20.06800000
 O                  5.60100000   16.27200000    5.60100000
 O                  5.60100000   20.06800000    9.39700000
 O                 20.06800000    5.60100000   16.27200000
 O                 20.06800000    5.60100000    9.39700000
 O                  5.60100000   20.06800000   16.27200000
 O                  5.60100000    5.60100000   16.27200000
 O                 20.06800000   20.06800000    9.39700000
 O                 20.06800000   20.06800000   16.27200000
 O                  5.60100000    5.60100000    9.39700000
 O                  7.23400000   16.27200000    7.23400000
 O                 18.43500000    9.39700000   18.43500000
 O                 18.43500000   16.27200000   18.43500000
 O                  7.23400000    9.39700000    7.23400000
 O                 18.43500000    9.39700000    7.23400000
 O                  7.23400000   16.27200000   18.43500000
 O                  7.23400000    9.39700000   18.43500000
 O                 18.43500000   16.27200000    7.23400000
 O                 16.27200000    7.23400000   18.43500000
 O                  9.39700000   18.43500000    7.23400000
 O                 16.27200000   18.43500000    7.23400000
 O                  9.39700000    7.23400000   18.43500000
 O                  9.39700000   18.43500000   18.43500000
 O                 16.27200000    7.23400000    7.23400000
 O                  9.39700000    7.23400000    7.23400000
 O                 16.27200000   18.43500000   18.43500000
 O                 16.27200000    5.60100000    5.60100000
 O                  9.39700000   20.06800000   20.06800000
 O                 16.27200000   20.06800000   20.06800000
 O                  9.39700000    5.60100000    5.60100000
 O                  9.39700000    5.60100000   20.06800000
 O                 16.27200000   20.06800000    5.60100000
 O                  9.39700000   20.06800000    5.60100000
 O                 16.27200000    5.60100000   20.06800000
 C                  6.41700000    6.41700000    2.83600000
 C                 19.25200000   19.25200000   22.83300000
 C                 19.25200000   19.25200000    2.83600000
 C                  6.41700000    6.41700000   22.83300000
 C                 19.25200000    6.41700000   22.83300000
 C                  6.41700000   19.25200000    2.83600000
 C                  6.41700000   19.25200000   22.83300000
 C                 19.25200000    6.41700000    2.83600000
 C                  2.83600000    6.41700000    6.41700000
 C                 22.83300000   19.25200000   19.25200000
 C                  2.83600000   19.25200000   19.25200000
 C                 22.83300000    6.41700000    6.41700000
 C                 22.83300000   19.25200000    6.41700000
 C                  2.83600000    6.41700000   19.25200000
 C                 22.83300000    6.41700000   19.25200000
 C                  2.83600000   19.25200000    6.41700000
 C                  6.41700000    2.83600000    6.41700000
 C                 19.25200000   22.83300000   19.25200000
 C                 19.25200000    2.83600000   19.25200000
 C                  6.41700000   22.83300000    6.41700000
 C                  6.41700000   22.83300000   19.25200000
 C                 19.25200000    2.83600000    6.41700000
 C                 19.25200000   22.83300000    6.41700000
 C                  6.41700000    2.83600000   19.25200000
 C                  6.41700000   19.25200000   15.67100000
 C                 19.25200000    6.41700000    9.99800000
 C                 19.25200000    6.41700000   15.67100000
 C                  6.41700000   19.25200000    9.99800000
 C                 19.25200000   19.25200000    9.99800000
 C                  6.41700000    6.41700000   15.67100000
 C                  6.41700000    6.41700000    9.99800000
 C                 19.25200000   19.25200000   15.67100000
 C                  6.41700000   15.67100000   19.25200000
 C                 19.25200000    9.99800000    6.41700000
 C                 19.25200000   15.67100000    6.41700000
 C                  6.41700000    9.99800000   19.25200000
 C                  6.41700000    9.99800000    6.41700000
 C                 19.25200000   15.67100000   19.25200000
 C                 19.25200000    9.99800000   19.25200000
 C                  6.41700000   15.67100000    6.41700000
 C                 15.67100000    6.41700000   19.25200000
 C                  9.99800000   19.25200000    6.41700000
 C                 15.67100000   19.25200000    6.41700000
 C                  9.99800000    6.41700000   19.25200000
 C                  9.99800000   19.25200000   19.25200000
 C                 15.67100000    6.41700000    6.41700000
 C                  9.99800000    6.41700000    6.41700000
 C                 15.67100000   19.25200000   19.25200000
 C                  7.26700000    5.56800000    0.67500000
 C                 18.40200000   20.10100000   24.99400000
 C                 18.40200000   20.10100000    0.67500000
 C                  7.26700000    5.56800000   24.99400000
 C                 18.40200000    5.56800000   24.99400000
 C                  7.26700000   20.10100000    0.67500000
 C                  7.26700000   20.10100000   24.99400000
 C                 18.40200000    5.56800000    0.67500000
 C                  0.67500000    7.26700000    5.56800000
 C                 24.99400000   18.40200000   20.10100000
 C                  0.67500000   18.40200000   20.10100000
 C                 24.99400000    7.26700000    5.56800000
 C                 24.99400000   18.40200000    5.56800000
 C                  0.67500000    7.26700000   20.10100000
 C                 24.99400000    7.26700000   20.10100000
 C                  0.67500000   18.40200000    5.56800000
 C                  5.56800000    0.67500000    7.26700000
 C                 20.10100000   24.99400000   18.40200000
 C                 20.10100000    0.67500000   18.40200000
 C                  5.56800000   24.99400000    7.26700000
 C                  5.56800000   24.99400000   18.40200000
 C                 20.10100000    0.67500000    7.26700000
 C                 20.10100000   24.99400000    7.26700000
 C                  5.56800000    0.67500000   18.40200000
 C                  5.56800000    7.26700000   24.99400000
 C                 20.10100000   18.40200000    0.67500000
 C                 20.10100000   18.40200000   24.99400000
 C                  5.56800000    7.26700000    0.67500000
 C                  5.56800000   18.40200000    0.67500000
 C                 20.10100000    7.26700000   24.99400000
 C                 20.10100000    7.26700000    0.67500000
 C                  5.56800000   18.40200000   24.99400000
 C                  7.26700000    0.67500000   20.10100000
 C                 18.40200000   24.99400000    5.56800000
 C                 18.40200000    0.67500000    5.56800000
 C                  7.26700000   24.99400000   20.10100000
 C                 18.40200000   24.99400000   20.10100000
 C                  7.26700000    0.67500000    5.56800000
 C                  7.26700000   24.99400000    5.56800000
 C                 18.40200000    0.67500000   20.10100000
 C                  0.67500000    5.56800000   18.40200000
 C                 24.99400000   20.10100000    7.26700000
 C                  0.67500000   20.10100000    7.26700000
 C                 24.99400000    5.56800000   18.40200000
 C                 24.99400000    5.56800000    7.26700000
 C                  0.67500000   20.10100000   18.40200000
 C                 24.99400000   20.10100000   18.40200000
 C                  0.67500000    5.56800000    7.26700000
 C                  7.26700000   18.40200000   13.51000000
 C                 18.40200000    7.26700000   12.15900000
 C                 18.40200000    7.26700000   13.51000000
 C                  7.26700000   18.40200000   12.15900000
 C                 18.40200000   18.40200000   12.15900000
 C                  7.26700000    7.26700000   13.51000000
 C                  7.26700000    7.26700000   12.15900000
 C                 18.40200000   18.40200000   13.51000000
 C                  5.56800000   13.51000000   20.10100000
 C                 20.10100000   12.15900000    5.56800000
 C                 20.10100000   13.51000000    5.56800000
 C                  5.56800000   12.15900000   20.10100000
 C                  5.56800000   12.15900000    5.56800000
 C                 20.10100000   13.51000000   20.10100000
 C                 20.10100000   12.15900000   20.10100000
 C                  5.56800000   13.51000000    5.56800000
 C                  5.56800000   20.10100000   12.15900000
 C                 20.10100000    5.56800000   13.51000000
 C                 20.10100000    5.56800000   12.15900000
 C                  5.56800000   20.10100000   13.51000000
 C                  5.56800000    5.56800000   13.51000000
 C                 20.10100000   20.10100000   12.15900000
 C                 20.10100000   20.10100000   13.51000000
 C                  5.56800000    5.56800000   12.15900000
 C                  7.26700000   13.51000000    7.26700000
 C                 18.40200000   12.15900000   18.40200000
 C                 18.40200000   13.51000000   18.40200000
 C                  7.26700000   12.15900000    7.26700000
 C                 18.40200000   12.15900000    7.26700000
 C                  7.26700000   13.51000000   18.40200000
 C                  7.26700000   12.15900000   18.40200000
 C                 18.40200000   13.51000000    7.26700000
 C                 13.51000000    7.26700000   18.40200000
 C                 12.15900000   18.40200000    7.26700000
 C                 13.51000000   18.40200000    7.26700000
 C                 12.15900000    7.26700000   18.40200000
 C                 12.15900000   18.40200000   18.40200000
 C                 13.51000000    7.26700000    7.26700000
 C                 12.15900000    7.26700000    7.26700000
 C                 13.51000000   18.40200000   18.40200000
 C                 13.51000000    5.56800000    5.56800000
 C                 12.15900000   20.10100000   20.10100000
 C                 13.51000000   20.10100000   20.10100000
 C                 12.15900000    5.56800000    5.56800000
 C                 12.15900000    5.56800000   20.10100000
 C                 13.51000000   20.10100000    5.56800000
 C                 12.15900000   20.10100000    5.56800000
 C                 13.51000000    5.56800000   20.10100000
 C                  6.41700000    6.41700000    1.38100000
 C                 19.25200000   19.25200000   24.28800000
 C                 19.25200000   19.25200000    1.38100000
 C                  6.41700000    6.41700000   24.28800000
 C                 19.25200000    6.41700000   24.28800000
 C                  6.41700000   19.25200000    1.38100000
 C                  6.41700000   19.25200000   24.28800000
 C                 19.25200000    6.41700000    1.38100000
 C                  1.38100000    6.41700000    6.41700000
 C                 24.28800000   19.25200000   19.25200000
 C                  1.38100000   19.25200000   19.25200000
 C                 24.28800000    6.41700000    6.41700000
 C                 24.28800000   19.25200000    6.41700000
 C                  1.38100000    6.41700000   19.25200000
 C                 24.28800000    6.41700000   19.25200000
 C                  1.38100000   19.25200000    6.41700000
 C                  6.41700000    1.38100000    6.41700000
 C                 19.25200000   24.28800000   19.25200000
 C                 19.25200000    1.38100000   19.25200000
 C                  6.41700000   24.28800000    6.41700000
 C                  6.41700000   24.28800000   19.25200000
 C                 19.25200000    1.38100000    6.41700000
 C                 19.25200000   24.28800000    6.41700000
 C                  6.41700000    1.38100000   19.25200000
 C                  6.41700000   19.25200000   14.21500000
 C                 19.25200000    6.41700000   11.45400000
 C                 19.25200000    6.41700000   14.21500000
 C                  6.41700000   19.25200000   11.45400000
 C                 19.25200000   19.25200000   11.45400000
 C                  6.41700000    6.41700000   14.21500000
 C                  6.41700000    6.41700000   11.45400000
 C                 19.25200000   19.25200000   14.21500000
 C                  6.41700000   14.21500000   19.25200000
 C                 19.25200000   11.45400000    6.41700000
 C                 19.25200000   14.21500000    6.41700000
 C                  6.41700000   11.45400000   19.25200000
 C                  6.41700000   11.45400000    6.41700000
 C                 19.25200000   14.21500000   19.25200000
 C                 19.25200000   11.45400000   19.25200000
 C                  6.41700000   14.21500000    6.41700000
 C                 14.21500000    6.41700000   19.25200000
 C                 11.45400000   19.25200000    6.41700000
 C                 14.21500000   19.25200000    6.41700000
 C                 11.45400000    6.41700000   19.25200000
 C                 11.45400000   19.25200000   19.25200000
 C                 14.21500000    6.41700000    6.41700000
 C                 11.45400000    6.41700000    6.41700000
 C                 14.21500000   19.25200000   19.25200000
 H                  7.85200000    4.98200000    1.16000000
 H                 17.81700000   20.68700000   24.50900000
 H                 17.81700000   20.68700000    1.16000000
 H                  7.85200000    4.98200000   24.50900000
 H                 17.81700000    4.98200000   24.50900000
 H                  7.85200000   20.68700000    1.16000000
 H                  7.85200000   20.68700000   24.50900000
 H                 17.81700000    4.98200000    1.16000000
 H                  1.16000000    7.85200000    4.98200000
 H                 24.50900000   17.81700000   20.68700000
 H                  1.16000000   17.81700000   20.68700000
 H                 24.50900000    7.85200000    4.98200000
 H                 24.50900000   17.81700000    4.98200000
 H                  1.16000000    7.85200000   20.68700000
 H                 24.50900000    7.85200000   20.68700000
 H                  1.16000000   17.81700000    4.98200000
 H                  4.98200000    1.16000000    7.85200000
 H                 20.68700000   24.50900000   17.81700000
 H                 20.68700000    1.16000000   17.81700000
 H                  4.98200000   24.50900000    7.85200000
 H                  4.98200000   24.50900000   17.81700000
 H                 20.68700000    1.16000000    7.85200000
 H                 20.68700000   24.50900000    7.85200000
 H                  4.98200000    1.16000000   17.81700000
 H                  4.98200000    7.85200000   24.50900000
 H                 20.68700000   17.81700000    1.16000000
 H                 20.68700000   17.81700000   24.50900000
 H                  4.98200000    7.85200000    1.16000000
 H                  4.98200000   17.81700000    1.16000000
 H                 20.68700000    7.85200000   24.50900000
 H                 20.68700000    7.85200000    1.16000000
 H                  4.98200000   17.81700000   24.50900000
 H                  7.85200000    1.16000000   20.68700000
 H                 17.81700000   24.50900000    4.98200000
 H                 17.81700000    1.16000000    4.98200000
 H                  7.85200000   24.50900000   20.68700000
 H                 17.81700000   24.50900000   20.68700000
 H                  7.85200000    1.16000000    4.98200000
 H                  7.85200000   24.50900000    4.98200000
 H                 17.81700000    1.16000000   20.68700000
 H                  1.16000000    4.98200000   17.81700000
 H                 24.50900000   20.68700000    7.85200000
 H                  1.16000000   20.68700000    7.85200000
 H                 24.50900000    4.98200000   17.81700000
 H                 24.50900000    4.98200000    7.85200000
 H                  1.16000000   20.68700000   17.81700000
 H                 24.50900000   20.68700000   17.81700000
 H                  1.16000000    4.98200000    7.85200000
 H                  7.85200000   17.81700000   13.99500000
 H                 17.81700000    7.85200000   11.67400000
 H                 17.81700000    7.85200000   13.99500000
 H                  7.85200000   17.81700000   11.67400000
 H                 17.81700000   17.81700000   11.67400000
 H                  7.85200000    7.85200000   13.99500000
 H                  7.85200000    7.85200000   11.67400000
 H                 17.81700000   17.81700000   13.99500000
 H                  4.98200000   13.99500000   20.68700000
 H                 20.68700000   11.67400000    4.98200000
 H                 20.68700000   13.99500000    4.98200000
 H                  4.98200000   11.67400000   20.68700000
 H                  4.98200000   11.67400000    4.98200000
 H                 20.68700000   13.99500000   20.68700000
 H                 20.68700000   11.67400000   20.68700000
 H                  4.98200000   13.99500000    4.98200000
 H                  4.98200000   20.68700000   11.67400000
 H                 20.68700000    4.98200000   13.99500000
 H                 20.68700000    4.98200000   11.67400000
 H                  4.98200000   20.68700000   13.99500000
 H                  4.98200000    4.98200000   13.99500000
 H                 20.68700000   20.68700000   11.67400000
 H                 20.68700000   20.68700000   13.99500000
 H                  4.98200000    4.98200000   11.67400000
 H                  7.85200000   13.99500000    7.85200000
 H                 17.81700000   11.67400000   17.81700000
 H                 17.81700000   13.99500000   17.81700000
 H                  7.85200000   11.67400000    7.85200000
 H                 17.81700000   11.67400000    7.85200000
 H                  7.85200000   13.99500000   17.81700000
 H                  7.85200000   11.67400000   17.81700000
 H                 17.81700000   13.99500000    7.85200000
 H                 13.99500000    7.85200000   17.81700000
 H                 11.67400000   17.81700000    7.85200000
 H                 13.99500000   17.81700000    7.85200000
 H                 11.67400000    7.85200000   17.81700000
 H                 11.67400000   17.81700000   17.81700000
 H                 13.99500000    7.85200000    7.85200000
 H                 11.67400000    7.85200000    7.85200000
 H                 13.99500000   17.81700000   17.81700000
 H                 13.99500000    4.98200000    4.98200000
 H                 11.67400000   20.68700000   20.68700000
 H                 13.99500000   20.68700000   20.68700000
 H                 11.67400000    4.98200000    4.98200000
 H                 11.67400000    4.98200000   20.68700000
 H                 13.99500000   20.68700000    4.98200000
 H                 11.67400000   20.68700000    4.98200000
 H                 13.99500000    4.98200000   20.68700000
 C                  7.26700000    5.56800000   -0.67500000
 C                 18.40200000   20.10100000   26.34400000
 C                 18.40200000   20.10100000   -0.67500000
 C                  7.26700000    5.56800000   26.34400000
 C                 18.40200000    5.56800000   26.34400000
 C                  7.26700000   20.10100000   -0.67500000
 C                  7.26700000   20.10100000   26.34400000
 C                 18.40200000    5.56800000   -0.67500000
 C                 -0.67500000    7.26700000    5.56800000
 C                 26.34400000   18.40200000   20.10100000
 C                 -0.67500000   18.40200000   20.10100000
 C                 26.34400000    7.26700000    5.56800000
 C                 26.34400000   18.40200000    5.56800000
 C                 -0.67500000    7.26700000   20.10100000
 C                 26.34400000    7.26700000   20.10100000
 C                 -0.67500000   18.40200000    5.56800000
 C                  5.56800000   -0.67500000    7.26700000
 C                 20.10100000   26.34400000   18.40200000
 C                 20.10100000   -0.67500000   18.40200000
 C                  5.56800000   26.34400000    7.26700000
 C                  5.56800000   26.34400000   18.40200000
 C                 20.10100000   -0.67500000    7.26700000
 C                 20.10100000   26.34400000    7.26700000
 C                  5.56800000   -0.67500000   18.40200000
 C                  5.56800000    7.26700000   26.34400000
 C                 20.10100000   18.40200000   -0.67500000
 C                 20.10100000   18.40200000   26.34400000
 C                  5.56800000    7.26700000   -0.67500000
 C                  5.56800000   18.40200000   -0.67500000
 C                 20.10100000    7.26700000   26.34400000
 C                 20.10100000    7.26700000   -0.67500000
 C                  5.56800000   18.40200000   26.34400000
 C                  7.26700000   -0.67500000   20.10100000
 C                 18.40200000   26.34400000    5.56800000
 C                 18.40200000   -0.67500000    5.56800000
 C                  7.26700000   26.34400000   20.10100000
 C                 18.40200000   26.34400000   20.10100000
 C                  7.26700000   -0.67500000    5.56800000
 C                  7.26700000   26.34400000    5.56800000
 C                 18.40200000   -0.67500000   20.10100000
 C                 -0.67500000    5.56800000   18.40200000
 C                 26.34400000   20.10100000    7.26700000
 C                 -0.67500000   20.10100000    7.26700000
 C                 26.34400000    5.56800000   18.40200000
 C                 26.34400000    5.56800000    7.26700000
 C                 -0.67500000   20.10100000   18.40200000
 C                 26.34400000   20.10100000   18.40200000
 C                 -0.67500000    5.56800000    7.26700000
 C                  6.41700000    6.41700000   -1.38100000
 H                  7.85200000    4.98200000   -1.16000000
 H                 17.81700000   20.68700000   26.82900000
 C                 19.25200000   19.25200000   27.05000000
 H                 17.81700000   20.68700000   -1.16000000
 C                 19.25200000   19.25200000   -1.38100000
 C                  6.41700000    6.41700000   27.05000000
 H                  7.85200000    4.98200000   26.82900000
 H                 17.81700000    4.98200000   26.82900000
 C                 19.25200000    6.41700000   27.05000000
 C                  6.41700000   19.25200000   -1.38100000
 H                  7.85200000   20.68700000   -1.16000000
 C                  6.41700000   19.25200000   27.05000000
 H                  7.85200000   20.68700000   26.82900000
 H                 17.81700000    4.98200000   -1.16000000
 C                 19.25200000    6.41700000   -1.38100000
 C                 -1.38100000    6.41700000    6.41700000
 H                 -1.16000000    7.85200000    4.98200000
 H                 26.82900000   17.81700000   20.68700000
 C                 27.05000000   19.25200000   19.25200000
 H                 -1.16000000   17.81700000   20.68700000
 C                 -1.38100000   19.25200000   19.25200000
 C                 27.05000000    6.41700000    6.41700000
 H                 26.82900000    7.85200000    4.98200000
 H                 26.82900000   17.81700000    4.98200000
 C                 27.05000000   19.25200000    6.41700000
 C                 -1.38100000    6.41700000   19.25200000
 H                 -1.16000000    7.85200000   20.68700000
 C                 27.05000000    6.41700000   19.25200000
 H                 26.82900000    7.85200000   20.68700000
 H                 -1.16000000   17.81700000    4.98200000
 C                 -1.38100000   19.25200000    6.41700000
 C                  6.41700000   -1.38100000    6.41700000
 H                  4.98200000   -1.16000000    7.85200000