%chk=temp.chk
# opt hf/3-21g geom=connectivity

Title Card Required

0 1
 O                  0.02808667    1.25475639    0.06654544
 H                  0.98808667    1.25475639    0.06654544
 H                 -0.29236792    2.15969223    0.06654544

 1 2 1.0 3 1.0
 2
 3

